{"lblp_lower": [1034.2527530569423, 1040.0990196078433], "cuttingPlaneBendInfo": [{"tot_cut_value": 0, "TOT_gen_cut": 0, "tot_time_opt": 0, "max_time_opt": 0}, {"tot_cut_value": 0, "TOT_gen_cut": 0, "tot_time_opt": 0, "max_time_opt": 0}], "time_compress": [0, 0], "ub_lp": [1040.3, 1040.099019607843], "prob_sizes_at_start": [{"timeGraph": 52, "ngGraph": 52}, {"timeGraph": 54, "ngGraph": 76}], "prob_sizes_after_compress": [{"timeGraph": 3, "ngGraph": 46}, {"timeGraph": 5, "ngGraph": 45}], "prob_sizes_after_split": [{"timeGraph": 54, "ngGraph": 76}, {"timeGraph": 54, "ngGraph": 54}], "did_compress": [true, true], "lp_time_project": [0.21644806861877441, 0.04395604133605957], "lp_time_LB": [0.009854793548583984, 0.005594015121459961], "ilp_time": [], "history_of_graphs_by_iter": [], "ROOT_LP_PRIOR_ADDING_CUTS": 1040.0990196078433, "OUR_ilp_objective": 1044.0, "OUR_MIP_Lower_Bound": 1044.0, "OUR_ilp_time": 0.0068264007568359375, "OUR_gurobi_MILP_str": "Gurobi Optimizer version 12.0.1 build v12.0.1rc0 (mac64[arm] - Darwin 24.5.0 24F74)\n\nCPU model: Apple M1\nThread count: 8 physical cores, 8 logical processors, using up to 8 threads\n\nNon-default parameters:\nTimeLimit  3000\n\nWLS license 2690165 - registered to Optym\nOptimize a model with 3619 rows, 1543 columns and 11872 nonzeros\nModel fingerprint: 0x4a6fcae4\nVariable types: 102 continuous, 1441 integer (1076 binary)\nCoefficient statistics:\n  Matrix range     [1e-01, 1e+02]\n  Objective range  [5e+00, 7e+01]\n  Bounds range     [1e-01, 2e+02]\n  RHS range        [1e+00, 1e+02]\nUsing branch priorities.\nPresolve removed 3610 rows and 1533 columns\nPresolve time: 0.00s\nPresolved: 9 rows, 10 columns, 26 nonzeros\nVariable types: 0 continuous, 10 integer (10 binary)\nFound heuristic solution: objective 1047.0000000\n\nRoot relaxation: objective 1.044000e+03, 7 iterations, 0.00 seconds (0.00 work units)\n\n    Nodes    |    Current Node    |     Objective Bounds      |     Work\n Expl Unexpl |  Obj  Depth IntInf | Incumbent    BestBd   Gap | It/Node Time\n\n*    0     0               0    1044.0000000 1044.00000  0.00%     -    0s\n\nExplored 1 nodes (7 simplex iterations) in 0.01 seconds (0.01 work units)\nThread count was 8 (of 8 available processors)\n\nSolution count 2: 1044 1047 \n\nOptimal solution found (tolerance 1.00e-04)\nBest objective 1.044000000000e+03, best bound 1.044000000000e+03, gap 0.0000%\n", "jy_opt": {"ParetoEps": 1e-05, "turn_off_time_windows": false, "deactivate_time_graph": false, "deactivate_demand_graph": false, "epsilon": 0.0001, "weight_slack_projector": 1e-05, "weight_compress": 0.01, "num_cust_use": 50, "dem_step_sz": 1, "time_step_sz": 1, "use_compression": 1, "max_iterations_loop_compress_project": 50, "do_round_dist_times": 1, "my_shift_bet_time_win": 0.0001, "num_terms_per_bin_init_construct": 100, "allOneBig_init": 0, "min_inc_2_compress": 1e-05, "save_graph_each_iter": 0, "use_Xpress": 0, "use_ineq": false, "xpress_file_loc": "/Users/julian/Documents/FICO_Xpress_Config/xpauth.xpr", "run_baseline": 0, "verbose": 0, "use_NG_graph": 1, "num_NG": 9, "in_demo_mode": 0, "threshold_split": 0.1, "offset_cost_edge_project": 0, "use_classic_compress": 1, "use_classic_compress_last": 1, "num_thresh_split_projector": 1000, "lplb_solver": 4, "compresss_solver": 0, "proj_solver": 4, "use_julians_custom_lp_solver": 0, "do_ilp": 1, "roundingDiscretization_num_digits_keep": 3, "doExrtraRemovalEdgesLB": 0, "use_gurobi": 1, "max_ILP_time": 3000, "use_fancy_ng_graph": 1, "use_dem_graph": 0, "use_time_graph": 1, "num_multiplys_demand": 0, "DEBUG_ALLOW_DUMB_EDGES": 0, "add_all_ng_split_at_end": 0, "do_split_based_init": 0, "think_compress": [0], "use_delta_in_milp": 1, "use_delta_in_lp": 1, "turn_off_non_active_fg_project": 0, "use_new_valid_ineq": 0, "digit_mult_use": 10, "use_branch_on_g": true, "LAB_MP_ON": 0, "LAB_MP_neigh_use_power": 9, "LAB_MP_num_ineq_use": 10, "do_remove_actions_from_incumbant": true, "ub_use_remove": 1044.0, "use_packing_in_construction": 1, "maxVarsAdd_in_ITER": 10, "use_ng_size_init": 0, "do_presolve": 0, "use_diving_ineq": 1, "BEND_MIN_LP_OBJECTIVE_CUT": 0.1, "BEND_USE_RAND": 0, "BEND_MAX_SIZE_CHOOSE_K": 230, "BEND_VAL_STOP_ADDING_CUTS": 100000000, "BEND_MY_SIZES_USE": [9], "NUMERICAL_BEND_OFFSET_COST_CUT": 0.0001, "NUMERICAL_BEND_EPSILON_MULT_PARETO_OBJ": 0.001, "NO_PARETO_NUMERICAL_BEND_OFFSET_COST_CUT": 0, "NO_PARETO_BEND_VAL_STOP_ADDING_CUTS": 1, "NO_PARETO_EPSILON_MAX_VAL_CON": 0.01, "BENDERS_NEIGH_SZ_USE": 9, "Actions_of_given_sol": [], "all_vars_binary": 1, "restore_after_each_step": 1, "use_ng": 1, "compress_solver": 1, "DEBUG_NG_turn_off_CLEAN": false, "max_nodes_split": Infinity}, "output_ilp_solution": {"delta_capRem_0": 1.0, "delta_timeRem_0": 59.0, "delta_capRem_1": 20.0, "delta_timeRem_1": 180.0, "delta_capRem_2": 1.6, "delta_timeRem_2": 104.0, "delta_capRem_3": 2.5, "delta_timeRem_3": 71.0, "delta_capRem_4": 20.0, "delta_timeRem_4": 196.0, "delta_capRem_5": 0.3, "delta_timeRem_5": 121.0, "delta_capRem_6": 15.7, "delta_timeRem_6": 139.0, "delta_capRem_7": 1.2, "delta_timeRem_7": 125.0, "delta_capRem_8": 4.8, "delta_timeRem_8": 124.1, "delta_capRem_9": 3.9, "delta_timeRem_9": 96.0, "delta_capRem_10": 15.7, "delta_timeRem_10": 161.0, "delta_capRem_11": 18.4, "delta_timeRem_11": 167.0, "delta_capRem_12": 2.3, "delta_timeRem_12": 61.0, "delta_capRem_13": 20.0, "delta_timeRem_13": 198.0, "delta_capRem_14": 19.5, "delta_timeRem_14": 159.0, "delta_capRem_15": 5.0, "delta_timeRem_15": 155.0, "delta_capRem_16": 0.2, "delta_timeRem_16": 63.0, "delta_capRem_17": 5.1, "delta_timeRem_17": 142.1, "delta_capRem_18": 8.3, "delta_timeRem_18": 144.0, "delta_capRem_19": 3.2, "delta_timeRem_19": 99.7, "delta_capRem_20": 19.3, "delta_timeRem_20": 159.6, "delta_capRem_21": 4.3, "delta_timeRem_21": 123.0, "delta_capRem_22": 16.9, "delta_timeRem_22": 162.0, "delta_capRem_23": 0.3, "delta_timeRem_23": 67.0, "delta_capRem_24": 0.6, "delta_timeRem_24": 48.0, "delta_capRem_25": 1.7, "delta_timeRem_25": 88.0, "delta_capRem_26": 20.0, "delta_timeRem_26": 193.0, "delta_capRem_27": 20.0, "delta_timeRem_27": 191.0, "delta_capRem_28": 18.4, "delta_timeRem_28": 167.0, "delta_capRem_29": 15.7, "delta_timeRem_29": 149.1, "delta_capRem_30": 20.0, "delta_timeRem_30": 180.0, "delta_capRem_31": 2.3, "delta_timeRem_31": 79.0, "delta_capRem_32": 20.0, "delta_timeRem_32": 193.0, "delta_capRem_33": 2.2, "delta_timeRem_33": 103.0, "delta_capRem_34": 0.8, "delta_timeRem_34": 77.0, "delta_capRem_35": 20.0, "delta_timeRem_35": 188.6, "delta_capRem_36": 0.8, "delta_timeRem_36": 96.0, "delta_capRem_37": 16.2, "delta_timeRem_37": 137.0, "delta_capRem_38": 20.0, "delta_timeRem_38": 186.0, "delta_capRem_39": 18.2, "delta_timeRem_39": 139.0, "delta_capRem_40": 3.6, "delta_timeRem_40": 133.0, "delta_capRem_41": 20.0, "delta_timeRem_41": 199.0, "delta_capRem_42": 3.0, "delta_timeRem_42": 98.0, "delta_capRem_43": 18.0, "delta_timeRem_43": 161.0, "delta_capRem_44": 20.0, "delta_timeRem_44": 198.0, "delta_capRem_45": 0.3, "delta_timeRem_45": 103.0, "delta_capRem_46": 19.5, "delta_timeRem_46": 171.4, "delta_capRem_47": 3.6, "delta_timeRem_47": 55.0, "delta_capRem_48": 6.6, "delta_timeRem_48": 112.0, "delta_capRem_49": 2.3, "delta_timeRem_49": 96.0, "act_0_51": 1, "act_1_20": 1, "act_2_23": 1, "act_3_24": 1, "act_4_15": 1, "act_5_51": 1, "act_6_9": 1, "act_7_45": 1, "act_8_33": 1, "act_9_51": 1, "act_10_18": 1, "act_11_2": 1, "act_12_51": 1, "act_13_43": 1, "act_14_40": 1, "act_15_36": 1, "act_16_51": 1, "act_17_5": 1, "act_18_48": 1, "act_19_31": 1, "act_20_39": 1, "act_21_3": 1, "act_22_21": 1, "act_23_51": 1, "act_24_51": 1, "act_25_51": 1, "act_26_17": 1, "act_27_11": 1, "act_28_8": 1, "act_29_19": 1, "act_30_29": 1, "act_31_51": 1, "act_32_28": 1, "act_33_34": 1, "act_34_51": 1, "act_35_46": 1, "act_36_51": 1, "act_37_42": 1, "act_38_22": 1, "act_39_49": 1, "act_40_25": 1, "act_41_14": 1, "act_42_12": 1, "act_43_37": 1, "act_44_7": 1, "act_45_16": 1, "act_46_6": 1, "act_47_51": 1, "act_48_47": 1, "act_49_0": 1, "act_50_1": 1, "act_50_4": 1, "act_50_10": 1, "act_50_13": 1, "act_50_26": 1, "act_50_27": 1, "act_50_30": 1, "act_50_32": 1, "act_50_35": 1, "act_50_38": 1, "act_50_41": 1, "act_50_44": 1}, "Actions_of_given_sol": "none just used source and sink terms", "actions_used": ["act_0_51", "act_1_20", "act_2_23", "act_3_24", "act_4_15", "act_5_51", "act_6_9", "act_7_45", "act_8_33", "act_9_51", "act_10_18", "act_11_2", "act_12_51", "act_13_43", "act_14_40", "act_15_36", "act_16_51", "act_17_5", "act_18_48", "act_19_31", "act_20_39", "act_21_3", "act_22_21", "act_23_51", "act_24_51", "act_25_51", "act_26_17", "act_27_11", "act_28_8", "act_29_19", "act_30_29", "act_31_51", "act_32_28", "act_33_34", "act_34_51", "act_35_46", "act_36_51", "act_37_42", "act_38_22", "act_39_49", "act_40_25", "act_41_14", "act_42_12", "act_43_37", "act_44_7", "act_45_16", "act_46_6", "act_47_51", "act_48_47", "act_49_0", "act_50_1", "act_50_4", "act_50_10", "act_50_13", "act_50_26", "act_50_27", "act_50_30", "act_50_32", "act_50_35", "act_50_38", "act_50_41", "act_50_44"], "init_default_solution_is_empty": false, "objective_of_initial_sol": 2620.800000000001, "my_paths": "[[50, 1, 20, 39, 49, 0, 51], [50, 4, 15, 36, 51], [50, 10, 18, 48, 47, 51], [50, 13, 43, 37, 42, 12, 51], [50, 26, 17, 5, 51], [50, 27, 11, 2, 23, 51], [50, 30, 29, 19, 31, 51], [50, 32, 28, 8, 33, 34, 51], [50, 35, 46, 6, 9, 51], [50, 38, 22, 21, 3, 24, 51], [50, 41, 14, 40, 25, 51], [50, 44, 7, 45, 16, 51]]"}